c Generated map
c Size: 15 * 15, weights in range: 1 to 10, walls: True, with ratio 0.05
c dim 2 of 4
c
p sp 225 379
c graph contains 225 nodes and 379 arcs
c
a 1 16 5
a 16 1 5
a 1 2 5
a 2 1 5
a 2 17 10
a 17 2 10
a 2 3 3
a 3 2 3
a 3 18 10
a 18 3 10
a 3 4 4
a 4 3 4
a 4 19 7
a 19 4 7
a 4 5 6
a 5 4 6
a 5 20 9
a 20 5 9
a 5 6 4
a 6 5 4
a 6 21 9
a 21 6 9
a 6 7 4
a 7 6 4
a 7 22 3
a 22 7 3
a 7 8 4
a 8 7 4
a 8 23 5
a 23 8 5
a 8 9 1
a 9 8 1
a 9 24 1
a 24 9 1
a 9 10 5
a 10 9 5
a 10 25 3
a 25 10 3
a 10 11 10
a 11 10 10
a 11 26 6
a 26 11 6
a 11 12 5
a 12 11 5
a 12 27 3
a 27 12 3
a 12 13 5
a 13 12 5
a 13 28 10
a 28 13 10
a 13 14 4
a 14 13 4
a 14 29 8
a 29 14 8
a 14 15 7
a 15 14 7
a 15 30 5
a 30 15 5
a 16 31 6
a 31 16 6
a 16 17 4
a 17 16 4
a 17 18 3
a 18 17 3
a 18 33 2
a 33 18 2
a 18 19 6
a 19 18 6
a 19 34 8
a 34 19 8
a 19 20 2
a 20 19 2
a 20 35 3
a 35 20 3
a 20 21 9
a 21 20 9
a 21 36 7
a 36 21 7
a 21 22 10
a 22 21 10
a 22 23 9
a 23 22 9
a 23 38 6
a 38 23 6
a 23 24 2
a 24 23 2
a 24 39 9
a 39 24 9
a 24 25 1
a 25 24 1
a 25 40 3
a 40 25 3
a 25 26 7
a 26 25 7
a 26 41 1
a 41 26 1
a 26 27 7
a 27 26 7
a 27 42 4
a 42 27 4
a 27 28 5
a 28 27 5
a 28 43 6
a 43 28 6
a 28 29 7
a 29 28 7
a 29 44 2
a 44 29 2
a 29 30 1
a 30 29 1
a 30 45 7
a 45 30 7
a 31 46 5
a 46 31 5
a 33 48 9
a 48 33 9
a 33 34 9
a 34 33 9
a 34 49 9
a 49 34 9
a 34 35 6
a 35 34 6
a 35 50 7
a 50 35 7
a 35 36 5
a 36 35 5
a 36 51 3
a 51 36 3
a 38 53 9
a 53 38 9
a 38 39 6
a 39 38 6
a 39 54 1
a 54 39 1
a 39 40 4
a 40 39 4
a 40 55 1
a 55 40 1
a 40 41 5
a 41 40 5
a 41 56 7
a 56 41 7
a 41 42 1
a 42 41 1
a 42 57 6
a 57 42 6
a 42 43 1
a 43 42 1
a 43 58 3
a 58 43 3
a 43 44 9
a 44 43 9
a 44 59 4
a 59 44 4
a 44 45 1
a 45 44 1
a 45 60 9
a 60 45 9
a 46 61 6
a 61 46 6
a 46 47 2
a 47 46 2
a 47 48 7
a 48 47 7
a 48 63 3
a 63 48 3
a 48 49 6
a 49 48 6
a 49 64 6
a 64 49 6
a 49 50 4
a 50 49 4
a 50 65 3
a 65 50 3
a 50 51 3
a 51 50 3
a 51 66 4
a 66 51 4
a 51 52 4
a 52 51 4
a 52 53 8
a 53 52 8
a 53 68 9
a 68 53 9
a 53 54 3
a 54 53 3
a 54 69 8
a 69 54 8
a 54 55 6
a 55 54 6
a 55 70 3
a 70 55 3
a 55 56 1
a 56 55 1
a 56 71 6
a 71 56 6
a 56 57 8
a 57 56 8
a 57 72 10
a 72 57 10
a 57 58 9
a 58 57 9
a 58 73 10
a 73 58 10
a 58 59 2
a 59 58 2
a 59 74 1
a 74 59 1
a 59 60 1
a 60 59 1
a 60 75 6
a 75 60 6
a 61 76 1
a 76 61 1
a 63 78 10
a 78 63 10
a 63 64 10
a 64 63 10
a 64 79 10
a 79 64 10
a 64 65 9
a 65 64 9
a 65 66 7
a 66 65 7
a 66 81 1
a 81 66 1
a 68 83 6
a 83 68 6
a 68 69 9
a 69 68 9
a 69 84 5
a 84 69 5
a 69 70 1
a 70 69 1
a 70 85 2
a 85 70 2
a 70 71 6
a 71 70 6
a 71 86 5
a 86 71 5
a 71 72 4
a 72 71 4
a 72 87 9
a 87 72 9
a 72 73 10
a 73 72 10
a 73 88 5
a 88 73 5
a 73 74 5
a 74 73 5
a 74 89 2
a 89 74 2
a 74 75 8
a 75 74 8
a 75 90 7
a 90 75 7
a 76 91 2
a 91 76 2
a 76 77 7
a 77 76 7
a 77 92 4
a 92 77 4
a 77 78 1
a 78 77 1
a 78 93 4
a 93 78 4
a 78 79 7
a 79 78 7
a 79 94 9
a 94 79 9
a 81 96 5
a 96 81 5
a 81 82 10
a 82 81 10
a 82 97 5
a 97 82 5
a 82 83 2
a 83 82 2
a 83 84 7
a 84 83 7
a 84 99 2
a 99 84 2
a 84 85 6
a 85 84 6
a 85 100 3
a 100 85 3
a 85 86 8
a 86 85 8
a 86 87 10
a 87 86 10
a 87 102 3
a 102 87 3
a 87 88 7
a 88 87 7
a 88 103 7
a 103 88 7
a 88 89 4
a 89 88 4
a 89 104 7
a 104 89 7
a 89 90 4
a 90 89 4
a 90 105 4
a 105 90 4
a 91 106 9
a 106 91 9
a 91 92 10
a 92 91 10
a 92 107 8
a 107 92 8
a 92 93 2
a 93 92 2
a 93 108 1
a 108 93 1
a 93 94 8
a 94 93 8
a 94 109 4
a 109 94 4
a 94 95 7
a 95 94 7
a 95 110 1
a 110 95 1
a 95 96 10
a 96 95 10
a 96 111 10
a 111 96 10
a 96 97 6
a 97 96 6
a 97 112 10
a 112 97 10
a 99 114 7
a 114 99 7
a 99 100 2
a 100 99 2
a 100 115 4
a 115 100 4
a 102 117 8
a 117 102 8
a 102 103 5
a 103 102 5
a 103 118 7
a 118 103 7
a 103 104 3
a 104 103 3
a 104 119 10
a 119 104 10
a 104 105 6
a 105 104 6
a 106 121 8
a 121 106 8
a 106 107 9
a 107 106 9
a 107 122 6
a 122 107 6
a 107 108 9
a 108 107 9
a 108 123 3
a 123 108 3
a 108 109 2
a 109 108 2
a 109 124 4
a 124 109 4
a 109 110 10
a 110 109 10
a 110 125 6
a 125 110 6
a 110 111 10
a 111 110 10
a 111 126 6
a 126 111 6
a 111 112 1
a 112 111 1
a 112 127 2
a 127 112 2
a 112 113 4
a 113 112 4
a 113 128 2
a 128 113 2
a 113 114 9
a 114 113 9
a 114 129 4
a 129 114 4
a 114 115 4
a 115 114 4
a 115 130 4
a 130 115 4
a 115 116 10
a 116 115 10
a 116 131 4
a 131 116 4
a 116 117 10
a 117 116 10
a 117 132 3
a 132 117 3
a 117 118 6
a 118 117 6
a 118 133 2
a 133 118 2
a 118 119 7
a 119 118 7
a 119 134 2
a 134 119 2
a 121 136 10
a 136 121 10
a 121 122 6
a 122 121 6
a 122 137 5
a 137 122 5
a 122 123 10
a 123 122 10
a 123 138 9
a 138 123 9
a 123 124 10
a 124 123 10
a 124 125 10
a 125 124 10
a 125 140 10
a 140 125 10
a 125 126 10
a 126 125 10
a 126 141 4
a 141 126 4
a 126 127 7
a 127 126 7
a 127 142 5
a 142 127 5
a 127 128 3
a 128 127 3
a 128 143 5
a 143 128 5
a 128 129 2
a 129 128 2
a 129 144 4
a 144 129 4
a 129 130 2
a 130 129 2
a 130 145 9
a 145 130 9
a 130 131 2
a 131 130 2
a 131 146 3
a 146 131 3
a 131 132 10
a 132 131 10
a 132 147 4
a 147 132 4
a 132 133 5
a 133 132 5
a 133 148 6
a 148 133 6
a 133 134 9
a 134 133 9
a 134 149 4
a 149 134 4
a 136 151 8
a 151 136 8
a 136 137 4
a 137 136 4
a 137 152 2
a 152 137 2
a 137 138 1
a 138 137 1
a 138 153 7
a 153 138 7
a 140 155 6
a 155 140 6
a 140 141 5
a 141 140 5
a 141 156 8
a 156 141 8
a 141 142 6
a 142 141 6
a 142 157 7
a 157 142 7
a 142 143 1
a 143 142 1
a 143 158 4
a 158 143 4
a 143 144 8
a 144 143 8
a 144 159 4
a 159 144 4
a 144 145 3
a 145 144 3
a 145 160 9
a 160 145 9
a 145 146 7
a 146 145 7
a 146 147 10
a 147 146 10
a 147 162 5
a 162 147 5
a 147 148 10
a 148 147 10
a 148 163 9
a 163 148 9
a 148 149 4
a 149 148 4
a 149 164 10
a 164 149 10
a 149 150 10
a 150 149 10
a 150 165 10
a 165 150 10
a 151 166 7
a 166 151 7
a 151 152 5
a 152 151 5
a 152 167 4
a 167 152 4
a 152 153 2
a 153 152 2
a 153 168 2
a 168 153 2
a 153 154 5
a 154 153 5
a 154 169 2
a 169 154 2
a 154 155 9
a 155 154 9
a 155 170 8
a 170 155 8
a 155 156 9
a 156 155 9
a 156 171 8
a 171 156 8
a 156 157 3
a 157 156 3
a 157 172 3
a 172 157 3
a 157 158 3
a 158 157 3
a 158 173 9
a 173 158 9
a 158 159 5
a 159 158 5
a 159 174 9
a 174 159 9
a 159 160 6
a 160 159 6
a 160 175 8
a 175 160 8
a 162 177 6
a 177 162 6
a 162 163 2
a 163 162 2
a 163 178 1
a 178 163 1
a 163 164 3
a 164 163 3
a 164 179 5
a 179 164 5
a 164 165 9
a 165 164 9
a 165 180 4
a 180 165 4
a 166 181 4
a 181 166 4
a 166 167 7
a 167 166 7
a 167 182 7
a 182 167 7
a 167 168 3
a 168 167 3
a 168 183 9
a 183 168 9
a 168 169 1
a 169 168 1
a 169 184 9
a 184 169 9
a 169 170 5
a 170 169 5
a 170 185 10
a 185 170 10
a 170 171 5
a 171 170 5
a 171 186 7
a 186 171 7
a 171 172 6
a 172 171 6
a 172 187 8
a 187 172 8
a 172 173 7
a 173 172 7
a 173 188 3
a 188 173 3
a 173 174 10
a 174 173 10
a 174 189 8
a 189 174 8
a 174 175 6
a 175 174 6
a 175 190 8
a 190 175 8
a 175 176 8
a 176 175 8
a 176 191 8
a 191 176 8
a 176 177 6
a 177 176 6
a 177 192 10
a 192 177 10
a 177 178 1
a 178 177 1
a 178 193 9
a 193 178 9
a 178 179 1
a 179 178 1
a 179 194 9
a 194 179 9
a 179 180 5
a 180 179 5
a 180 195 5
a 195 180 5
a 181 196 8
a 196 181 8
a 181 182 3
a 182 181 3
a 182 197 5
a 197 182 5
a 182 183 9
a 183 182 9
a 183 198 2
a 198 183 2
a 183 184 9
a 184 183 9
a 184 199 9
a 199 184 9
a 184 185 7
a 185 184 7
a 185 200 3
a 200 185 3
a 185 186 5
a 186 185 5
a 186 201 2
a 201 186 2
a 186 187 2
a 187 186 2
a 187 202 8
a 202 187 8
a 187 188 7
a 188 187 7
a 188 203 10
a 203 188 10
a 188 189 8
a 189 188 8
a 189 204 4
a 204 189 4
a 189 190 7
a 190 189 7
a 190 205 2
a 205 190 2
a 190 191 1
a 191 190 1
a 191 206 8
a 206 191 8
a 191 192 3
a 192 191 3
a 192 207 1
a 207 192 1
a 192 193 2
a 193 192 2
a 193 208 3
a 208 193 3
a 193 194 4
a 194 193 4
a 194 209 4
a 209 194 4
a 194 195 10
a 195 194 10
a 195 210 10
a 210 195 10
a 196 211 10
a 211 196 10
a 196 197 5
a 197 196 5
a 197 212 7
a 212 197 7
a 197 198 1
a 198 197 1
a 198 213 6
a 213 198 6
a 198 199 6
a 199 198 6
a 199 214 4
a 214 199 4
a 199 200 2
a 200 199 2
a 200 215 5
a 215 200 5
a 200 201 10
a 201 200 10
a 201 216 1
a 216 201 1
a 201 202 4
a 202 201 4
a 202 217 9
a 217 202 9
a 202 203 3
a 203 202 3
a 203 218 10
a 218 203 10
a 203 204 2
a 204 203 2
a 204 219 10
a 219 204 10
a 204 205 8
a 205 204 8
a 205 220 5
a 220 205 5
a 205 206 2
a 206 205 2
a 206 221 1
a 221 206 1
a 206 207 9
a 207 206 9
a 207 222 2
a 222 207 2
a 207 208 8
a 208 207 8
a 208 223 3
a 223 208 3
a 208 209 2
a 209 208 2
a 209 224 10
a 224 209 10
a 209 210 2
a 210 209 2
a 210 225 2
a 225 210 2
a 211 212 10
a 212 211 10
a 212 213 5
a 213 212 5
a 213 214 8
a 214 213 8
a 214 215 1
a 215 214 1
a 215 216 5
a 216 215 5
a 216 217 9
a 217 216 9
a 217 218 10
a 218 217 10
a 218 219 1
a 219 218 1
a 219 220 6
a 220 219 6
a 220 221 8
a 221 220 8
a 221 222 7
a 222 221 7
a 222 223 10
a 223 222 10
a 223 224 3
a 224 223 3
a 224 225 7
a 225 224 7
